1215 1320 1250 1220 975 945 880 845 845 835 830 795 760 720 685 685 700 770 830 700 725 595 560 480 410 300 420 415 520 565 605 575 555 510 475 525 650 580 875 1150 1340 1605 1740 1530 1465 1170 660 95 25 25 345 145 1215 
245 315 400 580 580 685 660 680 655 625 610 645 650 635 610 595 580 610 485 500 370 360 365 415 250 465 555 635 585 575 625 665 815 875 960 1000 1130 1175 920 1160 725 620 245 5 200 65 180 260 230 185 750 665 245 
25 26 27 11 24 3 5 14 4 23 47 37 39 38 35 34 33 36 45 43 15 49 19 22 29 20 30 17 21 0 48 31 44 18 40 7 9 8 42 32 50 10 51 13 12 46 28 41 6 1 2 16 25 

Droga: 8114.55
